c t wmc
c file mc2022_track2_033.cnf
p cnf 168 722
1 0
13 14 0
25 26 27 0
37 38 39 40 0
49 50 51 52 53 0
61 62 63 64 65 66 0
73 74 75 76 77 78 79 0
85 86 87 88 89 90 91 92 0
97 98 99 100 101 102 103 104 105 0
109 110 111 112 113 114 115 116 117 118 0
121 122 123 124 125 126 127 128 129 130 131 0
133 134 135 136 137 138 139 140 141 142 143 144 0
145 146 147 148 149 150 151 152 153 154 155 156 0
157 158 159 160 161 162 163 164 165 166 167 168 0
-61 -109 0
-62 -110 0
-63 -111 0
-64 -112 0
-65 -113 0
-66 -114 0
-67 -115 0
-68 -116 0
-69 -117 0
-70 -118 0
-71 -119 0
-72 -120 0
-73 -109 0
-74 -110 0
-75 -111 0
-76 -112 0
-77 -113 0
-78 -114 0
-79 -115 0
-80 -116 0
-81 -117 0
-82 -118 0
-83 -119 0
-84 -120 0
-13 -37 0
-14 -38 0
-15 -39 0
-16 -40 0
-17 -41 0
-18 -42 0
-19 -43 0
-20 -44 0
-21 -45 0
-22 -46 0
-23 -47 0
-24 -48 0
-97 -157 0
-98 -158 0
-99 -159 0
-100 -160 0
-101 -161 0
-102 -162 0
-103 -163 0
-104 -164 0
-105 -165 0
-106 -166 0
-107 -167 0
-108 -168 0
-49 -97 0
-50 -98 0
-51 -99 0
-52 -100 0
-53 -101 0
-54 -102 0
-55 -103 0
-56 -104 0
-57 -105 0
-58 -106 0
-59 -107 0
-60 -108 0
-85 -145 0
-86 -146 0
-87 -147 0
-88 -148 0
-89 -149 0
-90 -150 0
-91 -151 0
-92 -152 0
-93 -153 0
-94 -154 0
-95 -155 0
-96 -156 0
-25 -97 0
-26 -98 0
-27 -99 0
-28 -100 0
-29 -101 0
-30 -102 0
-31 -103 0
-32 -104 0
-33 -105 0
-34 -106 0
-35 -107 0
-36 -108 0
-1 -25 0
-2 -26 0
-3 -27 0
-4 -28 0
-5 -29 0
-6 -30 0
-7 -31 0
-8 -32 0
-9 -33 0
-10 -34 0
-11 -35 0
-12 -36 0
-37 -133 0
-38 -134 0
-39 -135 0
-40 -136 0
-41 -137 0
-42 -138 0
-43 -139 0
-44 -140 0
-45 -141 0
-46 -142 0
-47 -143 0
-48 -144 0
-1 -85 0
-2 -86 0
-3 -87 0
-4 -88 0
-5 -89 0
-6 -90 0
-7 -91 0
-8 -92 0
-9 -93 0
-10 -94 0
-11 -95 0
-12 -96 0
-97 -109 0
-98 -110 0
-99 -111 0
-100 -112 0
-101 -113 0
-102 -114 0
-103 -115 0
-104 -116 0
-105 -117 0
-106 -118 0
-107 -119 0
-108 -120 0
-49 -145 0
-50 -146 0
-51 -147 0
-52 -148 0
-53 -149 0
-54 -150 0
-55 -151 0
-56 -152 0
-57 -153 0
-58 -154 0
-59 -155 0
-60 -156 0
-13 -73 0
-14 -74 0
-15 -75 0
-16 -76 0
-17 -77 0
-18 -78 0
-19 -79 0
-20 -80 0
-21 -81 0
-22 -82 0
-23 -83 0
-24 -84 0
-25 -145 0
-26 -146 0
-27 -147 0
-28 -148 0
-29 -149 0
-30 -150 0
-31 -151 0
-32 -152 0
-33 -153 0
-34 -154 0
-35 -155 0
-36 -156 0
-37 -85 0
-38 -86 0
-39 -87 0
-40 -88 0
-41 -89 0
-42 -90 0
-43 -91 0
-44 -92 0
-45 -93 0
-46 -94 0
-47 -95 0
-48 -96 0
-1 -37 0
-2 -38 0
-3 -39 0
-4 -40 0
-5 -41 0
-6 -42 0
-7 -43 0
-8 -44 0
-9 -45 0
-10 -46 0
-11 -47 0
-12 -48 0
-13 -133 0
-14 -134 0
-15 -135 0
-16 -136 0
-17 -137 0
-18 -138 0
-19 -139 0
-20 -140 0
-21 -141 0
-22 -142 0
-23 -143 0
-24 -144 0
-85 -133 0
-86 -134 0
-87 -135 0
-88 -136 0
-89 -137 0
-90 -138 0
-91 -139 0
-92 -140 0
-93 -141 0
-94 -142 0
-95 -143 0
-96 -144 0
-73 -85 0
-74 -86 0
-75 -87 0
-76 -88 0
-77 -89 0
-78 -90 0
-79 -91 0
-80 -92 0
-81 -93 0
-82 -94 0
-83 -95 0
-84 -96 0
-49 -109 0
-50 -110 0
-51 -111 0
-52 -112 0
-53 -113 0
-54 -114 0
-55 -115 0
-56 -116 0
-57 -117 0
-58 -118 0
-59 -119 0
-60 -120 0
-25 -109 0
-26 -110 0
-27 -111 0
-28 -112 0
-29 -113 0
-30 -114 0
-31 -115 0
-32 -116 0
-33 -117 0
-34 -118 0
-35 -119 0
-36 -120 0
-145 -157 0
-146 -158 0
-147 -159 0
-148 -160 0
-149 -161 0
-150 -162 0
-151 -163 0
-152 -164 0
-153 -165 0
-154 -166 0
-155 -167 0
-156 -168 0
-37 -121 0
-38 -122 0
-39 -123 0
-40 -124 0
-41 -125 0
-42 -126 0
-43 -127 0
-44 -128 0
-45 -129 0
-46 -130 0
-47 -131 0
-48 -132 0
-61 -145 0
-62 -146 0
-63 -147 0
-64 -148 0
-65 -149 0
-66 -150 0
-67 -151 0
-68 -152 0
-69 -153 0
-70 -154 0
-71 -155 0
-72 -156 0
-97 -121 0
-98 -122 0
-99 -123 0
-100 -124 0
-101 -125 0
-102 -126 0
-103 -127 0
-104 -128 0
-105 -129 0
-106 -130 0
-107 -131 0
-108 -132 0
-121 -145 0
-122 -146 0
-123 -147 0
-124 -148 0
-125 -149 0
-126 -150 0
-127 -151 0
-128 -152 0
-129 -153 0
-130 -154 0
-131 -155 0
-132 -156 0
-13 -61 0
-14 -62 0
-15 -63 0
-16 -64 0
-17 -65 0
-18 -66 0
-19 -67 0
-20 -68 0
-21 -69 0
-22 -70 0
-23 -71 0
-24 -72 0
-25 -157 0
-26 -158 0
-27 -159 0
-28 -160 0
-29 -161 0
-30 -162 0
-31 -163 0
-32 -164 0
-33 -165 0
-34 -166 0
-35 -167 0
-36 -168 0
-109 -133 0
-110 -134 0
-111 -135 0
-112 -136 0
-113 -137 0
-114 -138 0
-115 -139 0
-116 -140 0
-117 -141 0
-118 -142 0
-119 -143 0
-120 -144 0
-37 -73 0
-38 -74 0
-39 -75 0
-40 -76 0
-41 -77 0
-42 -78 0
-43 -79 0
-44 -80 0
-45 -81 0
-46 -82 0
-47 -83 0
-48 -84 0
-13 -121 0
-14 -122 0
-15 -123 0
-16 -124 0
-17 -125 0
-18 -126 0
-19 -127 0
-20 -128 0
-21 -129 0
-22 -130 0
-23 -131 0
-24 -132 0
-25 -73 0
-26 -74 0
-27 -75 0
-28 -76 0
-29 -77 0
-30 -78 0
-31 -79 0
-32 -80 0
-33 -81 0
-34 -82 0
-35 -83 0
-36 -84 0
-37 -157 0
-38 -158 0
-39 -159 0
-40 -160 0
-41 -161 0
-42 -162 0
-43 -163 0
-44 -164 0
-45 -165 0
-46 -166 0
-47 -167 0
-48 -168 0
-13 -157 0
-14 -158 0
-15 -159 0
-16 -160 0
-17 -161 0
-18 -162 0
-19 -163 0
-20 -164 0
-21 -165 0
-22 -166 0
-23 -167 0
-24 -168 0
-25 -121 0
-26 -122 0
-27 -123 0
-28 -124 0
-29 -125 0
-30 -126 0
-31 -127 0
-32 -128 0
-33 -129 0
-34 -130 0
-35 -131 0
-36 -132 0
-1 -145 0
-2 -146 0
-3 -147 0
-4 -148 0
-5 -149 0
-6 -150 0
-7 -151 0
-8 -152 0
-9 -153 0
-10 -154 0
-11 -155 0
-12 -156 0
-37 -109 0
-38 -110 0
-39 -111 0
-40 -112 0
-41 -113 0
-42 -114 0
-43 -115 0
-44 -116 0
-45 -117 0
-46 -118 0
-47 -119 0
-48 -120 0
-25 -37 0
-26 -38 0
-27 -39 0
-28 -40 0
-29 -41 0
-30 -42 0
-31 -43 0
-32 -44 0
-33 -45 0
-34 -46 0
-35 -47 0
-36 -48 0
-13 -109 0
-14 -110 0
-15 -111 0
-16 -112 0
-17 -113 0
-18 -114 0
-19 -115 0
-20 -116 0
-21 -117 0
-22 -118 0
-23 -119 0
-24 -120 0
-73 -145 0
-74 -146 0
-75 -147 0
-76 -148 0
-77 -149 0
-78 -150 0
-79 -151 0
-80 -152 0
-81 -153 0
-82 -154 0
-83 -155 0
-84 -156 0
-1 -97 0
-2 -98 0
-3 -99 0
-4 -100 0
-5 -101 0
-6 -102 0
-7 -103 0
-8 -104 0
-9 -105 0
-10 -106 0
-11 -107 0
-12 -108 0
-85 -109 0
-86 -110 0
-87 -111 0
-88 -112 0
-89 -113 0
-90 -114 0
-91 -115 0
-92 -116 0
-93 -117 0
-94 -118 0
-95 -119 0
-96 -120 0
-1 -13 0
-2 -14 0
-3 -15 0
-4 -16 0
-5 -17 0
-6 -18 0
-7 -19 0
-8 -20 0
-9 -21 0
-10 -22 0
-11 -23 0
-12 -24 0
-25 -85 0
-26 -86 0
-27 -87 0
-28 -88 0
-29 -89 0
-30 -90 0
-31 -91 0
-32 -92 0
-33 -93 0
-34 -94 0
-35 -95 0
-36 -96 0
-109 -157 0
-110 -158 0
-111 -159 0
-112 -160 0
-113 -161 0
-114 -162 0
-115 -163 0
-116 -164 0
-117 -165 0
-118 -166 0
-119 -167 0
-120 -168 0
-37 -145 0
-38 -146 0
-39 -147 0
-40 -148 0
-41 -149 0
-42 -150 0
-43 -151 0
-44 -152 0
-45 -153 0
-46 -154 0
-47 -155 0
-48 -156 0
-73 -97 0
-74 -98 0
-75 -99 0
-76 -100 0
-77 -101 0
-78 -102 0
-79 -103 0
-80 -104 0
-81 -105 0
-82 -106 0
-83 -107 0
-84 -108 0
-13 -145 0
-14 -146 0
-15 -147 0
-16 -148 0
-17 -149 0
-18 -150 0
-19 -151 0
-20 -152 0
-21 -153 0
-22 -154 0
-23 -155 0
-24 -156 0
-97 -145 0
-98 -146 0
-99 -147 0
-100 -148 0
-101 -149 0
-102 -150 0
-103 -151 0
-104 -152 0
-105 -153 0
-106 -154 0
-107 -155 0
-108 -156 0
-61 -85 0
-62 -86 0
-63 -87 0
-64 -88 0
-65 -89 0
-66 -90 0
-67 -91 0
-68 -92 0
-69 -93 0
-70 -94 0
-71 -95 0
-72 -96 0
-25 -133 0
-26 -134 0
-27 -135 0
-28 -136 0
-29 -137 0
-30 -138 0
-31 -139 0
-32 -140 0
-33 -141 0
-34 -142 0
-35 -143 0
-36 -144 0
-85 -157 0
-86 -158 0
-87 -159 0
-88 -160 0
-89 -161 0
-90 -162 0
-91 -163 0
-92 -164 0
-93 -165 0
-94 -166 0
-95 -167 0
-96 -168 0
-37 -97 0
-38 -98 0
-39 -99 0
-40 -100 0
-41 -101 0
-42 -102 0
-43 -103 0
-44 -104 0
-45 -105 0
-46 -106 0
-47 -107 0
-48 -108 0
-13 -97 0
-14 -98 0
-15 -99 0
-16 -100 0
-17 -101 0
-18 -102 0
-19 -103 0
-20 -104 0
-21 -105 0
-22 -106 0
-23 -107 0
-24 -108 0
-13 -85 0
-14 -86 0
-15 -87 0
-16 -88 0
-17 -89 0
-18 -90 0
-19 -91 0
-20 -92 0
-21 -93 0
-22 -94 0
-23 -95 0
-24 -96 0
-1 -109 0
-2 -110 0
-3 -111 0
-4 -112 0
-5 -113 0
-6 -114 0
-7 -115 0
-8 -116 0
-9 -117 0
-10 -118 0
-11 -119 0
-12 -120 0
-85 -97 0
-86 -98 0
-87 -99 0
-88 -100 0
-89 -101 0
-90 -102 0
-91 -103 0
-92 -104 0
-93 -105 0
-94 -106 0
-95 -107 0
-96 -108 0
-25 -49 0
-26 -50 0
-27 -51 0
-28 -52 0
-29 -53 0
-30 -54 0
-31 -55 0
-32 -56 0
-33 -57 0
-34 -58 0
-35 -59 0
-36 -60 0
-109 -145 0
-110 -146 0
-111 -147 0
-112 -148 0
-113 -149 0
-114 -150 0
-115 -151 0
-116 -152 0
-117 -153 0
-118 -154 0
-119 -155 0
-120 -156 0
c p weight 1 0.99327527 0
c p weight -1 0.00672473 0
c p weight 2 0.01356763 0
c p weight -2 0.98643237 0
c p weight 3 0.0181256 0
c p weight -3 0.9818744 0
c p weight 4 0.00588302 0
c p weight -4 0.99411698 0
c p weight 5 0.00474595 0
c p weight -5 0.99525405 0
c p weight 6 0.00616241 0
c p weight -6 0.99383759 0
c p weight 7 0.00945296 0
c p weight -7 0.99054704 0
c p weight 8 0.01523512 0
c p weight -8 0.98476488 0
c p weight 9 0.01257694 0
c p weight -9 0.98742306 0
c p weight 10 0.0158717 0
c p weight -10 0.9841283 0
c p weight 11 0.00059637 0
c p weight -11 0.99940363 0
c p weight 12 0.00625716 0
c p weight -12 0.99374284 0
c p weight 13 0.01349548 0
c p weight -13 0.98650452 0
c p weight 14 0.9939727 0
c p weight -14 0.0060273 0
c p weight 15 0.01068546 0
c p weight -15 0.98931454 0
c p weight 16 0.01812108 0
c p weight -16 0.98187892 0
c p weight 17 0.01631459 0
c p weight -17 0.98368541 0
c p weight 18 0.01289905 0
c p weight -18 0.98710095 0
c p weight 19 0.00481656 0
c p weight -19 0.99518344 0
c p weight 20 0.01100728 0
c p weight -20 0.98899272 0
c p weight 21 0.00543757 0
c p weight -21 0.99456243 0
c p weight 22 0.0105595 0
c p weight -22 0.9894405 0
c p weight 23 0.00544885 0
c p weight -23 0.99455115 0
c p weight 24 0.01573286 0
c p weight -24 0.98426714 0
c p weight 25 0.01462909 0
c p weight -25 0.98537091 0
c p weight 26 0.99610632 0
c p weight -26 0.00389368 0
c p weight 27 0.01412562 0
c p weight -27 0.98587438 0
c p weight 28 0.01867537 0
c p weight -28 0.98132463 0
c p weight 29 0.01592042 0
c p weight -29 0.98407958 0
c p weight 30 0.00299245 0
c p weight -30 0.99700755 0
c p weight 31 0.01713092 0
c p weight -31 0.98286908 0
c p weight 32 0.00768571 0
c p weight -32 0.99231429 0
c p weight 33 0.01114961 0
c p weight -33 0.98885039 0
c p weight 34 0.0079502 0
c p weight -34 0.9920498 0
c p weight 35 0.00193108 0
c p weight -35 0.99806892 0
c p weight 36 0.01747102 0
c p weight -36 0.98252898 0
c p weight 37 0.01152273 0
c p weight -37 0.98847727 0
c p weight 38 0.01974362 0
c p weight -38 0.98025638 0
c p weight 39 0.01025885 0
c p weight -39 0.98974115 0
c p weight 40 0.98635104 0
c p weight -40 0.01364896 0
c p weight 41 0.00754125 0
c p weight -41 0.99245875 0
c p weight 42 0.00593792 0
c p weight -42 0.99406208 0
c p weight 43 0.00922968 0
c p weight -43 0.99077032 0
c p weight 44 0.00855177 0
c p weight -44 0.99144823 0
c p weight 45 0.00742926 0
c p weight -45 0.99257074 0
c p weight 46 0.01899978 0
c p weight -46 0.98100022 0
c p weight 47 0.01139824 0
c p weight -47 0.98860176 0
c p weight 48 0.00054627 0
c p weight -48 0.99945373 0
c p weight 49 0.00924441 0
c p weight -49 0.99075559 0
c p weight 50 0.00138698 0
c p weight -50 0.99861302 0
c p weight 51 0.00192033 0
c p weight -51 0.99807967 0
c p weight 52 0.99244607 0
c p weight -52 0.00755393 0
c p weight 53 0.01375602 0
c p weight -53 0.98624398 0
c p weight 54 0.00694818 0
c p weight -54 0.99305182 0
c p weight 55 0.00297514 0
c p weight -55 0.99702486 0
c p weight 56 0.01390345 0
c p weight -56 0.98609655 0
c p weight 57 0.00390166 0
c p weight -57 0.99609834 0
c p weight 58 0.00819913 0
c p weight -58 0.99180087 0
c p weight 59 0.00405585 0
c p weight -59 0.99594415 0
c p weight 60 0.0093595 0
c p weight -60 0.9906405 0
c p weight 61 0.01244715 0
c p weight -61 0.98755285 0
c p weight 62 0.01603855 0
c p weight -62 0.98396145 0
c p weight 63 0.00838194 0
c p weight -63 0.99161806 0
c p weight 64 0.00634595 0
c p weight -64 0.99365405 0
c p weight 65 0.01921179 0
c p weight -65 0.98078821 0
c p weight 66 0.99615162 0
c p weight -66 0.00384838 0
c p weight 67 0.01077376 0
c p weight -67 0.98922624 0
c p weight 68 0.01849488 0
c p weight -68 0.98150512 0
c p weight 69 0.01078702 0
c p weight -69 0.98921298 0
c p weight 70 0.01134711 0
c p weight -70 0.98865289 0
c p weight 71 0.00990216 0
c p weight -71 0.99009784 0
c p weight 72 0.00910264 0
c p weight -72 0.99089736 0
c p weight 73 0.98491512 0
c p weight -73 0.01508488 0
c p weight 74 0.00356132 0
c p weight -74 0.99643868 0
c p weight 75 0.01325722 0
c p weight -75 0.98674278 0
c p weight 76 0.00453681 0
c p weight -76 0.99546319 0
c p weight 77 0.0012493 0
c p weight -77 0.9987507 0
c p weight 78 0.01864825 0
c p weight -78 0.98135175 0
c p weight 79 0.00328302 0
c p weight -79 0.99671698 0
c p weight 80 0.01093925 0
c p weight -80 0.98906075 0
c p weight 81 0.00521005 0
c p weight -81 0.99478995 0
c p weight 82 0.00319707 0
c p weight -82 0.99680293 0
c p weight 83 0.00666781 0
c p weight -83 0.99333219 0
c p weight 84 0.00776778 0
c p weight -84 0.99223222 0
c p weight 85 0.00328811 0
c p weight -85 0.99671189 0
c p weight 86 0.01325036 0
c p weight -86 0.98674964 0
c p weight 87 0.99786526 0
c p weight -87 0.00213474 0
c p weight 88 0.00691825 0
c p weight -88 0.99308175 0
c p weight 89 0.01915802 0
c p weight -89 0.98084198 0
c p weight 90 0.00484121 0
c p weight -90 0.99515879 0
c p weight 91 0.01890459 0
c p weight -91 0.98109541 0
c p weight 92 0.01453107 0
c p weight -92 0.98546893 0
c p weight 93 0.00692243 0
c p weight -93 0.99307757 0
c p weight 94 0.00372222 0
c p weight -94 0.99627778 0
c p weight 95 0.0115549 0
c p weight -95 0.9884451 0
c p weight 96 0.01365504 0
c p weight -96 0.98634496 0
c p weight 97 0.0049265 0
c p weight -97 0.9950735 0
c p weight 98 0.0010955 0
c p weight -98 0.9989045 0
c p weight 99 0.01288344 0
c p weight -99 0.98711656 0
c p weight 100 0.00763142 0
c p weight -100 0.99236858 0
c p weight 101 0.00784843 0
c p weight -101 0.99215157 0
c p weight 102 0.98333122 0
c p weight -102 0.01666878 0
c p weight 103 0.00634506 0
c p weight -103 0.99365494 0
c p weight 104 0.0067037 0
c p weight -104 0.9932963 0
c p weight 105 0.01064285 0
c p weight -105 0.98935715 0
c p weight 106 0.01842267 0
c p weight -106 0.98157733 0
c p weight 107 0.01943438 0
c p weight -107 0.98056562 0
c p weight 108 0.01857076 0
c p weight -108 0.98142924 0
c p weight 109 0.01337583 0
c p weight -109 0.98662417 0
c p weight 110 0.00535737 0
c p weight -110 0.99464263 0
c p weight 111 0.01883468 0
c p weight -111 0.98116532 0
c p weight 112 0.01359048 0
c p weight -112 0.98640952 0
c p weight 113 0.98644583 0
c p weight -113 0.01355417 0
c p weight 114 0.0013948 0
c p weight -114 0.9986052 0
c p weight 115 0.00229622 0
c p weight -115 0.99770378 0
c p weight 116 0.0036716 0
c p weight -116 0.9963284 0
c p weight 117 0.00735996 0
c p weight -117 0.99264004 0
c p weight 118 0.99069727 0
c p weight -118 0.00930273 0
c p weight 119 0.98543083 0
c p weight -119 0.01456917 0
c p weight 120 0.00109612 0
c p weight -120 0.99890388 0
c p weight 121 0.00085282 0
c p weight -121 0.99914718 0
c p weight 122 0.0036013 0
c p weight -122 0.9963987 0
c p weight 123 0.00350161 0
c p weight -123 0.99649839 0
c p weight 124 0.01082581 0
c p weight -124 0.98917419 0
c p weight 125 0.01049086 0
c p weight -125 0.98950914 0
c p weight 126 0.00151771 0
c p weight -126 0.99848229 0
c p weight 127 0.01168626 0
c p weight -127 0.98831374 0
c p weight 128 0.01143171 0
c p weight -128 0.98856829 0
c p weight 129 0.01545627 0
c p weight -129 0.98454373 0
c p weight 130 0.99790984 0
c p weight -130 0.00209016 0
c p weight 131 0.01681172 0
c p weight -131 0.98318828 0
c p weight 132 0.01378072 0
c p weight -132 0.98621928 0
c p weight 133 0.00278225 0
c p weight -133 0.99721775 0
c p weight 134 0.01014884 0
c p weight -134 0.98985116 0
c p weight 135 0.0117974 0
c p weight -135 0.9882026 0
c p weight 136 0.0124451 0
c p weight -136 0.9875549 0
c p weight 137 0.00633865 0
c p weight -137 0.99366135 0
c p weight 138 0.01806063 0
c p weight -138 0.98193937 0
c p weight 139 0.01530489 0
c p weight -139 0.98469511 0
c p weight 140 0.99195582 0
c p weight -140 0.00804418 0
c p weight 141 0.01737195 0
c p weight -141 0.98262805 0
c p weight 142 0.0134405 0
c p weight -142 0.9865595 0
c p weight 143 0.01495532 0
c p weight -143 0.98504468 0
c p weight 144 0.01710053 0
c p weight -144 0.98289947 0
c p weight 145 0.01949737 0
c p weight -145 0.98050263 0
c p weight 146 0.01822218 0
c p weight -146 0.98177782 0
c p weight 147 0.00299267 0
c p weight -147 0.99700733 0
c p weight 148 0.0041835 0
c p weight -148 0.9958165 0
c p weight 149 0.00635319 0
c p weight -149 0.99364681 0
c p weight 150 0.01287041 0
c p weight -150 0.98712959 0
c p weight 151 0.98958479 0
c p weight -151 0.01041521 0
c p weight 152 0.99585811 0
c p weight -152 0.00414189 0
c p weight 153 0.98369512 0
c p weight -153 0.01630488 0
c p weight 154 0.00183725 0
c p weight -154 0.99816275 0
c p weight 155 0.0103666 0
c p weight -155 0.9896334 0
c p weight 156 0.98491367 0
c p weight -156 0.01508633 0
c p weight 157 0.99846323 0
c p weight -157 0.00153677 0
c p weight 158 0.00752171 0
c p weight -158 0.99247829 0
c p weight 159 0.01274973 0
c p weight -159 0.98725027 0
c p weight 160 0.01963425 0
c p weight -160 0.98036575 0
c p weight 161 0.00257011 0
c p weight -161 0.99742989 0
c p weight 162 0.0059463 0
c p weight -162 0.9940537 0
c p weight 163 0.01519341 0
c p weight -163 0.98480659 0
c p weight 164 0.01661929 0
c p weight -164 0.98338071 0
c p weight 165 0.00737177 0
c p weight -165 0.99262823 0
c p weight 166 0.00987363 0
c p weight -166 0.99012637 0
c p weight 167 0.00270477 0
c p weight -167 0.99729523 0
c p weight 168 0.01088681 0
c p weight -168 0.98911319 0
